opti conp lbfgs nosym # delete-marker
name test
# put coordinates here
cartesian
C   core         0.00000000         0.00000000         0.00000000
C   core         0.00000000         0.00000000         3.12137000
H   core         1.08983000         0.00000000         3.05497000
C   core        -0.64623700         0.82329600         3.94506000
C   core        -0.68754500        -0.99849900         2.23721000
C   core         0.05068700        -1.22538000         0.90913400
H   core         0.43133900         0.88059800         0.49161100
H   core        -1.72076000         0.86100500         4.03911000
H   core        -0.14427700         1.52738000         4.59114000
H   core        -1.73317000        -0.68974200         2.03294000
H   core        -0.76715200        -1.96130000         2.78630000
H   core        -0.39789800        -2.09422000         0.38784300
H   core         1.10480000        -1.50377000         1.10546000
H   core         0.55664400        -0.16812500        -0.92799900
H   core        -1.02984000         0.25700600        -0.27287700
# assign force filed in library
library tersoff
name test
# put coordinates here
cartesian
C   core        -0.07009500         0.00866700        -0.11260300
C   core         0.01152400        -0.10882600         3.20679000
H   core         1.10159000        -0.16082300         3.19714000
C   core        -0.59959600         0.98154900         3.74442000
C   core        -0.73880100        -1.14902000         2.51071000
C   core        -0.01013400        -1.24096000         0.67390200
H   core         0.36160000         1.02041000         0.86252800
H   core        -1.67324000         1.03491000         3.86721000
H   core        -0.07991500         1.63817000         4.42969000
H   core        -1.80509000        -0.92491600         2.34222000
H   core        -0.69919000        -2.10589000         3.05859000
H   core        -0.39293300        -2.10801000         0.11551300
H   core         0.99835400        -1.49180000         1.03551000
H   core         0.73203300         0.09526400        -0.84408200
H   core        -1.02969000         0.21953200        -0.58625100
# assign force filed in library
library tersoff
name test
# put coordinates here
cartesian
C   core        -0.09101700         0.02789500        -0.26437300
C   core         0.03621000        -0.18515400         3.28848000
H   core         1.12570000        -0.24517900         3.31239000
C   core        -0.55924300         1.04419000         3.55643000
C   core        -0.72913200        -1.28432000         2.80505000
C   core        -0.11817300        -1.20553000         0.47043500
H   core         0.27956600         1.09060000         1.17783000
H   core        -1.63933000         1.12032000         3.63441000
H   core        -0.07308800         1.71311000         4.25994000
H   core        -1.80744000        -1.14411000         2.66961000
H   core        -0.57110100        -2.21956000         3.35453000
H   core        -0.47935500        -2.06679000        -0.10011700
H   core         0.81416200        -1.47631000         0.97956500
H   core         0.85472900         0.27467600        -0.73791300
H   core        -0.93607100         0.26438800        -0.90497500
# assign force filed in library
library tersoff
name test
# put coordinates here
cartesian
C   core         0.01332300         0.04604400        -0.44802400
C   core         0.08199300        -0.23055600         3.35346000
H   core         1.17325000        -0.23765100         3.37459000
C   core        -0.56669900         1.03612000         3.36990000
C   core        -0.64164500        -1.39788000         3.13793000
C   core        -0.31863900        -1.10286000         0.27657600
H   core         0.10471300         1.12954000         1.43047000
H   core        -1.65412000         1.06436000         3.42208000
H   core        -0.14202300         1.78143000         4.04111000
H   core        -1.72753000        -1.37516000         3.05512000
H   core        -0.32234200        -2.29838000         3.66077000
H   core        -0.80373700        -1.90958000        -0.27122600
H   core         0.46113600        -1.49392000         0.93372900
H   core         1.05583000         0.31856500        -0.56377800
H   core        -0.60708600         0.37816500        -1.27143000
# assign force filed in library
library tersoff
name test
# put coordinates here
cartesian
C   core         0.22623700        -0.01336400        -0.59585400
C   core         0.13624400        -0.25391100         3.38611000
H   core         1.22458000        -0.17027000         3.38820000
C   core        -0.60899100         0.97935300         3.17521000
C   core        -0.48360200        -1.45953000         3.47246000
C   core        -0.51963300        -0.94731800         0.05065500
H   core        -0.18853500         1.14516000         1.64940000
H   core        -1.69631000         0.90785100         3.26356000
H   core        -0.26028200         1.81197000         3.79234000
H   core        -1.56122000        -1.57066000         3.46608000
H   core         0.01622700        -2.33014000         3.87827000
H   core        -1.26867000        -1.53804000        -0.46202600
H   core        -0.09972000        -1.45719000         0.91171900
H   core         1.24565000         0.21478200        -0.31602800
H   core        -0.05555900         0.38954700        -1.55882000
# assign force filed in library
library tersoff
name test
# put coordinates here
cartesian
C   core         0.32733100        -0.09044300        -0.69586600
C   core         0.16794900        -0.30510400         3.41826000
H   core         1.25248000        -0.17759500         3.44922000
C   core        -0.58602100         0.91261300         3.00084000
C   core        -0.40456600        -1.46793000         3.72540000
C   core        -0.54618000        -0.91243900        -0.12771900
H   core        -0.39302600         1.14665000         1.94246000
H   core        -1.67261000         0.80127000         3.11107000
H   core        -0.28782300         1.78979000         3.59037000
H   core        -1.47056000        -1.63611000         3.70997000
H   core         0.15404500        -2.34258000         4.02183000
H   core        -1.43695000        -1.27294000        -0.62363000
H   core        -0.44055600        -1.29169000         0.88247500
H   core         1.21955000         0.26667300        -0.19996000
H   core         0.22336200         0.28809500        -1.70345000
# assign force filed in library
library tersoff
